(set-info :Origin "This instance was generated by: BanditFuzz-- an RL fuzzer for SMT solvers" )
(set-info :Author "Joe Scott, Fed Mora, Vijay Ganesh" )
(set-info :Contact "Joe Scott, joseph.scott@uwaterloo.ca")
(set-logic QF_BV)
(declare-const bool_0 Bool)
(declare-const bool_1 Bool)
(declare-const bool_2 Bool)
(declare-const bool_3 Bool)
(declare-const bool_4 Bool)
(declare-const bv_0 (_ BitVec 32))
(declare-const bv_1 (_ BitVec 32))
(declare-const bv_2 (_ BitVec 32))
(declare-const bv_3 (_ BitVec 32))
(declare-const bv_4 (_ BitVec 32))
(assert (=> (xor (bvsle #xc7f5a5fe  #x9acbf7aa ) (bvsle #xc23221b0  bv_4)) (or (and bool_1 bool_0) (bvuge #x6b64f698  bv_2))))
(assert (bvugt (bvmul (bvmul bv_2 #x79a00444 ) (bvsdiv bv_1 #x1ce221a4 )) (bvudiv (bvor bv_2 bv_4) (bvnor #x12bc6a4d  #x2ee77c4e ))))
(assert (=> (not (=> false bool_0)) (and (bvule #x80084535  #x998e5a8f ) (or bool_2 bool_3))))
(assert (and (xor (=> bool_2 false) (bvsgt bv_1 #x7e1517b6 )) (bvule (bvxor #x751be219  #xd012704f ) (bvor bv_1 #x57c2c38e ))))
(assert (or (xor (bvsle bv_1 #x0002e33f ) (bvslt bv_3 #xa7873bb0 )) (xor (=> true bool_1) (bvsge bv_2 bv_1))))
(check-sat)
(exit)
